NAME: instance_3229
TYPE: TSP
DIMENSION: 20
EDGE_WEIGHT_TYPE: EUC_2D
NODE_COORD_SECTION
0 0.67 66.22
1 70.62 78.04
2 94.05 41.21
3 6.32 84.91
4 38.61 99.13
5 44.48 13.76
6 24.82 27.36
7 38.40 57.45
8 69.83 35.67
9 2.95 86.80
10 35.46 56.24
11 4.84 94.94
12 86.42 16.74
13 5.67 86.41
14 60.14 28.00
15 49.58 77.38
16 71.05 2.45
17 29.53 12.80
18 35.84 69.98
19 58.31 44.77
EOF
